(set-option :print-success false)
(set-logic QF_UF)
(declare-sort x134 0)
(declare-sort x123 0)
(declare-fun x130 () x123)
(declare-fun x41 () x123)
(declare-fun x122 () x123)
(declare-fun x113 () x123)
(declare-fun x28 (x123 x123) x123)
(declare-fun x120 () x123)
(declare-fun x64 (x123 x123) x123)
(assert (let ((x100 (x28 x41 x41)) (x91 (x28 x130 x130)) (x96 (x28 x120 x130)) (x86 (x28 x113 x130)) (x136 (x28 x113 x122)) (x109 (x28 x113 x120)) (x128 (x28 x130 x113)) (x88 (x28 x122 x113)) (x55 (x28 x130 x41)) (x38 (x28 x122 x120)) (x53 (x28 x113 x113)) (x81 (x28 x41 x113)) (x131 (x28 x130 x120)) (x97 (x28 x122 x41)) (x142 (x28 x120 x122)) (x108 (x28 x130 x122)) (x147 (x28 x120 x120)) (x121 (x28 x120 x41)) (x95 (x28 x41 x120)) (x22 (x28 x122 x130)) (x89 (x28 x41 x130)) (x14 (x28 x122 x122)) (x146 (x28 x41 x122)) (x27 (x28 x120 x113)) (x48 (x28 x113 x41))) (let ((x26 (= x91 x120)) (x133 (= x120 x14)) (x104 (= x136 x122)) (x101 (= x113 x95)) (x10 (= x130 x131)) (x155 (= x14 x130)) (x34 (= x14 x41)) (x154 (= x27 x41)) (x74 (= x41 x108)) (x37 (= x130 x96)) (x106 (= x113 x53)) (x126 (= x100 x122)) (x12 (= x130 x146)) (x49 (= x89 x122)) (x32 (= x146 x122)) (x35 (= x113 x38)) (x119 (= x121 x122)) (x51 (= x128 x120)) (x31 (= x38 x130)) (x153 (= x146 x120)) (x1 (= x41 x100)) (x63 (= x55 x41)) (x67 (= x109 x130)) (x139 (= x122 x14)) (x33 (= x130 x86)) (x93 (= x122 x48)) (x115 (= x120 x96)) (x83 (= x113 x108)) (x144 (= x27 x122)) (x79 (= x128 x113)) (x137 (= x120 x108)) (x60 (= x122 x22)) (x11 (= x122 x53)) (x92 (= x53 x41)) (x77 (= x120 x100)) (x65 (= x120 x109)) (x158 (= x41 x128)) (x52 (= x120 x142)) (x8 (= x131 x113)) (x62 (= x41 x38)) (x73 (= x147 x130)) (x58 (= x120 x27)) (x84 (= x128 x122)) (x149 (= x109 x122)) (x21 (= x130 x89)) (x30 (= x109 x41)) (x66 (= x95 x120)) (x9 (= x96 x113)) (x47 (= x41 x131)) (x112 (= x41 x96)) (x127 (= x88 x113)) (x152 (= x122 x91)) (x87 (= x41 x136)) (x6 (= x122 x96)) (x125 (= x38 x122)) (x157 (= x91 x130)) (x107 (= x53 x130)) (x135 (= x108 x130)) (x42 (= x81 x122)) (x98 (= x122 x142)) (x110 (= x88 x122)) (x82 (= x55 x122)) (x80 (= x97 x130)) (x45 (= x95 x130)) (x145 (= x22 x130)) (x56 (= x120 x131)) (x36 (= x48 x130)) (x132 (= x89 x113)) (x3 (= x121 x130)) (x143 (= x48 x113)) (x44 (= x120 x121)) (x114 (= x120 x97)) (x151 (= x81 x130)) (x156 (= x41 x97)) (x148 (= x130 x142)) (x61 (= x131 x122)) (x76 (= x136 x120)) (x46 (= x81 x120)) (x140 (= x113 x91)) (x90 (= x81 x41)) (x20 (= x113 x146)) (x138 (= x88 x130)) (x111 (= x120 x86)) (x141 (= x86 x113)) (x17 (= x147 x120)) (x72 (= x122 x95)) (x70 (= x147 x41)) (x13 (= x41 x91)) (x5 (= x41 x86)) (x129 (= x122 x86)) (x24 (= x113 x100)) (x103 (= x41 x146)) (x29 (= x142 x113)) (x18 (= x81 x113)) (x57 (= x41 x142)) (x59 (= x41 x88)) (x105 (= x53 x120)) (x68 (= x147 x113)) (x150 (= x120 x89)) (x54 (= x41 x89)) (x75 (= x113 x97)) (x94 (= x120 x38)) (x23 (= x95 x41)) (x69 (= x122 x108)) (x15 (= x22 x41)) (x71 (= x122 x97)) (x25 (= x130 x55)) (x39 (= x41 x121)) (x7 (= x55 x113)) (x118 (= x130 x100)) (x117 (= x113 x22)) (x16 (= x120 x55)) (x43 (= x136 x113)) (x159 (= x27 x113)) (x124 (= x14 x113)) (x116 (= x113 x121)) (x4 (= x130 x136)) (x102 (= x41 x48)) (x99 (= x128 x130)) (x19 (= x147 x122)) (x85 (= x130 x27)) (x50 (= x120 x48)) (x2 (= x113 x109)) (x40 (= x88 x120)) (x78 (= x22 x120))) (and (and (and (and (or (or (or (and x16 (not x150)) (or (and x137 (not x78)) (or (and x51 (not x111)) (and x56 (not x115))))) (and (not x26) x26)) (or (or (or (or (or (and (not x133) x133) (or (and (not x52) x94) (and x40 (not x76)))) (and (not x153) x114)) (and x78 (not x137))) (or (or (or (and x50 (not x46)) (or (or (and x65 (not x58)) (and (not x105) x105)) (and (not x40) x76))) (and (not x51) x111)) (or (or (and x44 (not x66)) (or (or (and (not x17) x17) (and (not x65) x58)) (and x52 (not x94)))) (and x115 (not x56))))) (or (or (and (not x77) x77) (or (and (not x114) x153) (or (and (not x44) x66) (and (not x50) x46)))) (and (not x16) x150)))) (or (or (or (or (or (or (and (not x18) x143) (or (or (and (not x159) x2) (and (not x106) x106)) (and x43 (not x127)))) (and (not x79) x141)) (or (or (and x116 (not x101)) (or (or (and x68 (not x68)) (and (not x2) x159)) (and (not x35) x29))) (and (not x8) x9))) (or (or (or (or (and x127 (not x43)) (and (not x29) x35)) (and (not x124) x124)) (and (not x20) x75)) (and x117 (not x83)))) (or (and (not x7) x132) (or (and (not x24) x24) (or (or (and x101 (not x116)) (and (not x143) x18)) (and x20 (not x75)))))) (or (and x140 (not x140)) (or (and x7 (not x132)) (or (or (and (not x9) x8) (and x79 (not x141))) (and x83 (not x117))))))) (or (or (or (or (or (or (or (and x110 (not x104)) (and (not x98) x125)) (and x139 (not x139))) (and x71 (not x32))) (and (not x69) x60)) (or (or (or (and x93 (not x42)) (or (and x104 (not x110)) (or (and x11 (not x11)) (and (not x144) x149)))) (and x129 (not x84))) (or (or (and x119 (not x72)) (or (and (not x125) x98) (or (and x19 (not x19)) (and x144 (not x149))))) (and x6 (not x61))))) (or (and x49 (not x82)) (or (or (and (not x71) x32) (or (and x42 (not x93)) (and (not x119) x72))) (and x126 (not x126))))) (or (and (not x152) x152) (or (and x82 (not x49)) (or (or (and (not x6) x61) (and (not x129) x84)) (and x69 (not x60))))))) (or (or (and (not x13) x13) (or (and x63 (not x54)) (or (or (and (not x5) x158) (and (not x112) x47)) (and x74 (not x15))))) (or (or (or (or (or (or (or (and (not x70) x70) (and (not x30) x154)) (and x57 (not x62))) (and x39 (not x23))) (and (not x47) x112)) (or (and (not x158) x5) (or (or (or (and x30 (not x154)) (and x92 (not x92))) (and x87 (not x59))) (and (not x90) x102)))) (or (or (and x156 (not x103)) (or (and x34 (not x34)) (or (and (not x87) x59) (and x62 (not x57))))) (and (not x74) x15))) (or (and (not x63) x54) (or (and (not x1) x1) (or (and x103 (not x156)) (or (and x90 (not x102)) (and (not x39) x23)))))))) (or (or (or (and (not x25) x21) (or (and (not x118) x118) (or (and x12 (not x80)) (or (and (not x3) x45) (and (not x36) x151))))) (or (or (or (or (or (and (not x148) x31) (and (not x4) x138)) (and x155 (not x155))) (and (not x12) x80)) (and (not x135) x145)) (or (or (or (and x36 (not x151)) (or (or (and (not x85) x67) (and (not x107) x107)) (and (not x138) x4))) (and (not x99) x33)) (or (and x37 (not x10)) (or (and (not x45) x3) (or (or (and x73 (not x73)) (and x85 (not x67))) (and x148 (not x31)))))))) (or (or (or (and x135 (not x145)) (or (and x99 (not x33)) (and (not x37) x10))) (and x25 (not x21))) (and x157 (not x157))))))))
(assert (or (or (= x41 (x28 x41 x41)) (or (or (= x113 (x28 x113 x113)) (= (x28 x120 x120) x120)) (= x122 (x28 x122 x122)))) (= x130 (x28 x130 x130))))
(assert (let ((x141 (x28 x122 x41)) (x143 (x28 x113 x122)) (x2 (x28 x122 x113)) (x106 (x28 x113 x113)) (x132 (x28 x41 x130)) (x101 (x28 x120 x122)) (x7 (x28 x122 x130)) (x127 (x28 x130 x113)) (x9 (x28 x130 x41)) (x29 (x28 x122 x120)) (x124 (x28 x41 x120)) (x24 (x28 x113 x41)) (x75 (x28 x130 x122)) (x79 (x28 x120 x41)) (x116 (x28 x122 x122)) (x117 (x28 x120 x130)) (x8 (x28 x41 x41)) (x83 (x28 x113 x130)) (x140 (x28 x130 x130)) (x159 (x28 x120 x113)) (x20 (x28 x41 x122)) (x35 (x28 x120 x120)) (x43 (x28 x113 x120)) (x18 (x28 x130 x120)) (x68 (x28 x41 x113))) (or (and (not (= (x28 x140 x140) x130)) (and (and (not (= x122 (x28 x7 x7))) (and (not (= x113 (x28 x83 x83))) (not (= (x28 x117 x117) x120)))) (not (= x41 (x28 x132 x132))))) (or (or (or (and (and (and (not (= (x28 x2 x2) x122)) (and (not (= x120 (x28 x159 x159))) (not (= (x28 x106 x106) x113)))) (not (= (x28 x68 x68) x41))) (not (= x130 (x28 x127 x127)))) (and (not (= x130 (x28 x18 x18))) (and (not (= (x28 x124 x124) x41)) (and (and (not (= (x28 x43 x43) x113)) (not (= (x28 x35 x35) x120))) (not (= x122 (x28 x29 x29))))))) (and (not (= (x28 x75 x75) x130)) (and (and (not (= (x28 x116 x116) x122)) (and (not (= x120 (x28 x101 x101))) (not (= x113 (x28 x143 x143))))) (not (= (x28 x20 x20) x41))))) (and (not (= (x28 x9 x9) x130)) (and (and (not (= (x28 x141 x141) x122)) (and (not (= (x28 x79 x79) x120)) (not (= x113 (x28 x24 x24))))) (not (= (x28 x8 x8) x41))))))))
(assert (and (and (and (= x113 (x28 x41 x120)) (= (x28 x41 x41) x122)) (= (x28 x120 x120) x41)) (= x130 (x28 x41 x122))))
(assert (let ((x106 (x28 x113 x113)) (x20 (x28 x41 x122)) (x124 (x28 x122 x122)) (x140 (x28 x130 x130)) (x101 (x28 x41 x120)) (x116 (x28 x120 x41)) (x68 (x28 x120 x120)) (x159 (x28 x120 x113)) (x75 (x28 x122 x41)) (x127 (x28 x122 x113)) (x24 (x28 x41 x41)) (x141 (x28 x113 x130)) (x35 (x28 x122 x120)) (x132 (x28 x41 x130)) (x18 (x28 x41 x113)) (x8 (x28 x130 x120)) (x7 (x28 x130 x41)) (x143 (x28 x113 x41)) (x2 (x28 x113 x120)) (x29 (x28 x120 x122)) (x9 (x28 x120 x130)) (x79 (x28 x130 x113)) (x117 (x28 x122 x130)) (x83 (x28 x130 x122)) (x43 (x28 x113 x122))) (and (and (and (or (or (or (not (= x124 x124)) (or (not (= x43 x127)) (not (= x35 x29)))) (not (= x75 x20))) (not (= x83 x117))) (and (or (not (= x79 x141)) (or (not (= x143 x18)) (or (or (not (= x106 x106)) (not (= x159 x2))) (not (= x43 x127))))) (or (or (not (= x116 x101)) (or (or (not (= x68 x68)) (not (= x159 x2))) (not (= x29 x35)))) (not (= x8 x9))))) (or (or (or (or (not (= x143 x18)) (not (= x101 x116))) (not (= x20 x75))) (not (= x24 x24))) (not (= x7 x132)))) (or (not (= x140 x140)) (or (or (not (= x83 x117)) (or (not (= x9 x8)) (not (= x79 x141)))) (not (= x7 x132)))))))
(assert (and (or (or (= (x28 (x28 x41 x130) x41) x130) (or (= x130 (x28 (x28 x122 x130) x122)) (or (= (x28 (x28 x120 x130) x120) x130) (= (x28 (x28 x113 x130) x113) x130)))) (= (x28 (x28 x130 x130) x130) x130)) (and (and (and (or (or (= (x28 (x28 x41 x120) x41) x120) (or (= (x28 (x28 x122 x120) x122) x120) (or (= (x28 (x28 x120 x120) x120) x120) (= (x28 (x28 x113 x120) x113) x120)))) (= (x28 (x28 x130 x120) x130) x120)) (or (or (or (= (x28 (x28 x122 x113) x122) x113) (or (= (x28 (x28 x120 x113) x120) x113) (= x113 (x28 (x28 x113 x113) x113)))) (= (x28 (x28 x41 x113) x41) x113)) (= x113 (x28 (x28 x130 x113) x130)))) (or (= (x28 (x28 x130 x122) x130) x122) (or (= (x28 (x28 x41 x122) x41) x122) (or (or (= (x28 (x28 x120 x122) x120) x122) (= x122 (x28 (x28 x113 x122) x113))) (= x122 (x28 (x28 x122 x122) x122)))))) (or (or (or (or (= (x28 (x28 x120 x41) x120) x41) (= x41 (x28 (x28 x113 x41) x113))) (= x41 (x28 (x28 x122 x41) x122))) (= (x28 (x28 x41 x41) x41) x41)) (= (x28 (x28 x130 x41) x130) x41)))))
(assert (let ((x68 (x28 x41 x41)) (x127 (x28 x130 x130)) (x2 (x28 x122 x122)) (x159 (x28 x120 x120)) (x106 (x28 x113 x113))) (or (and (not (= x130 x127)) (and (not (= x68 x130)) (and (and (not (= x106 x130)) (not (= x130 x159))) (not (= x130 x2))))) (or (or (and (not (= x122 x127)) (and (and (and (not (= x122 x106)) (not (= x159 x122))) (not (= x122 x2))) (not (= x122 x68)))) (or (and (not (= x127 x120)) (and (and (not (= x2 x120)) (and (not (= x159 x120)) (not (= x120 x106)))) (not (= x68 x120)))) (and (and (and (not (= x113 x2)) (and (not (= x113 x106)) (not (= x159 x113)))) (not (= x68 x113))) (not (= x113 x127))))) (and (not (= x41 x127)) (and (not (= x68 x41)) (and (not (= x41 x2)) (and (not (= x106 x41)) (not (= x41 x159))))))))))
(assert (not (and (and (= (x28 x130 x41) x41) (and (= x122 (x28 x130 x122)) (and (= (x28 x130 x120) x120) (and (= (x28 x130 x113) x130) (and (and (and (= (x28 x41 x122) x130) (and (and (and (and (and (= (x28 x122 x122) x120) (and (= (x28 x122 x120) x130) (and (and (and (= x130 (x28 x120 x41)) (and (and (= x41 (x28 x120 x120)) (and (= x120 (x28 x120 x113)) (and (= x130 (x28 x113 x130)) (and (= (x28 x113 x41) x120) (and (= (x28 x113 x122) x41) (and (= (x28 x113 x120) x122) (= x113 (x28 x113 x113)))))))) (= x113 (x28 x120 x122)))) (= (x28 x120 x130) x122)) (= x122 (x28 x122 x113))))) (= (x28 x122 x41) x113)) (= (x28 x122 x130) x41)) (= x41 (x28 x41 x113))) (= (x28 x41 x120) x113))) (= (x28 x41 x41) x122)) (= (x28 x41 x130) x120)))))) (= (x28 x130 x130) x113))))
(assert (not (and (= (x28 x130 x130) x113) (and (= x41 (x28 x130 x41)) (and (and (= (x28 x130 x120) x120) (and (= (x28 x130 x113) x130) (and (and (= x122 (x28 x41 x41)) (and (= (x28 x41 x122) x130) (and (and (and (and (and (= x120 (x28 x122 x122)) (and (and (= x122 (x28 x122 x113)) (and (= x122 (x28 x120 x130)) (and (and (= x113 (x28 x120 x122)) (and (= x41 (x28 x120 x120)) (and (and (= x130 (x28 x113 x130)) (and (= x120 (x28 x113 x41)) (and (= x41 (x28 x113 x122)) (and (= x122 (x28 x113 x120)) (= x113 (x28 x113 x113)))))) (= (x28 x120 x113) x120)))) (= (x28 x120 x41) x130)))) (= (x28 x122 x120) x130))) (= (x28 x122 x41) x113)) (= (x28 x122 x130) x41)) (= (x28 x41 x113) x41)) (= x113 (x28 x41 x120))))) (= x120 (x28 x41 x130))))) (= (x28 x130 x122) x122))))))
(assert (let ((x68 (= x41 (x28 x41 x41))) (x127 (= x130 (x28 x130 x130))) (x159 (= x120 (x28 x120 x120))) (x106 (= (x28 x113 x113) x113)) (x2 (= (x28 x122 x122) x122))) (and (and (and (and (or (not (= (x28 x130 x122) x130)) x2) (and (or (not (= x130 (x28 x130 x120))) x159) (or (not (= (x28 x130 x113) x130)) x106))) (or (not (= (x28 x130 x41) x130)) x68)) (or x127 (not x127))) (and (and (or (not (= (x28 x41 x130) x41)) x127) (and (and (and (or x159 (not (= x41 (x28 x41 x120)))) (or x106 (not (= x41 (x28 x41 x113))))) (or (not (= (x28 x41 x122) x41)) x2)) (or x68 (not x68)))) (and (and (and (and (or (not x2) x2) (and (or x159 (not (= (x28 x122 x120) x122))) (or (not (= x122 (x28 x122 x113))) x106))) (or x68 (not (= x122 (x28 x122 x41))))) (or (not (= (x28 x122 x130) x122)) x127)) (and (and (or x127 (not (= x120 (x28 x120 x130)))) (and (or x68 (not (= x120 (x28 x120 x41)))) (and (and (or x106 (not (= x120 (x28 x120 x113)))) (or x159 (not x159))) (or x2 (not (= x120 (x28 x120 x122))))))) (and (and (and (or x2 (not (= x113 (x28 x113 x122)))) (and (or x159 (not (= x113 (x28 x113 x120)))) (or x106 (not x106)))) (or (not (= (x28 x113 x41) x113)) x68)) (or x127 (not (= (x28 x113 x130) x113))))))))))
(assert (or (or (or (or (and (= x130 (x28 (x28 x130 x113) x113)) (and (and (and (= x113 (x28 (x28 x113 x113) x113)) (= x120 (x28 (x28 x120 x113) x113))) (= x122 (x28 (x28 x122 x113) x113))) (= (x28 (x28 x41 x113) x113) x41))) (and (and (= x41 (x28 (x28 x41 x120) x120)) (and (and (= (x28 (x28 x113 x120) x120) x113) (= x120 (x28 (x28 x120 x120) x120))) (= x122 (x28 (x28 x122 x120) x120)))) (= x130 (x28 (x28 x130 x120) x120)))) (and (= (x28 (x28 x130 x122) x122) x130) (and (and (and (= (x28 (x28 x120 x122) x122) x120) (= x113 (x28 (x28 x113 x122) x122))) (= (x28 (x28 x122 x122) x122) x122)) (= x41 (x28 (x28 x41 x122) x122))))) (and (= (x28 (x28 x130 x41) x41) x130) (and (and (= x122 (x28 (x28 x122 x41) x41)) (and (= (x28 (x28 x120 x41) x41) x120) (= (x28 (x28 x113 x41) x41) x113))) (= x41 (x28 (x28 x41 x41) x41))))) (and (= x130 (x28 (x28 x130 x130) x130)) (and (and (and (= (x28 (x28 x120 x130) x130) x120) (= x113 (x28 (x28 x113 x130) x130))) (= x122 (x28 (x28 x122 x130) x130))) (= (x28 (x28 x41 x130) x130) x41)))))
(assert (not (and (and (= (x28 x130 x41) x41) (and (and (= x120 (x28 x130 x120)) (and (and (= (x28 x41 x130) x120) (and (and (= (x28 x41 x122) x130) (and (= (x28 x41 x120) x113) (and (and (and (= x113 (x28 x122 x41)) (and (and (and (and (and (= (x28 x120 x41) x130) (and (and (= (x28 x120 x120) x41) (and (and (= (x28 x113 x130) x130) (and (and (and (= x122 (x28 x113 x120)) (= (x28 x113 x113) x113)) (= x41 (x28 x113 x122))) (= x120 (x28 x113 x41)))) (= (x28 x120 x113) x120))) (= x113 (x28 x120 x122)))) (= x122 (x28 x120 x130))) (= (x28 x122 x113) x122)) (= (x28 x122 x120) x130)) (= (x28 x122 x122) x120))) (= x41 (x28 x122 x130))) (= (x28 x41 x113) x41)))) (= x122 (x28 x41 x41)))) (= x130 (x28 x130 x113)))) (= (x28 x130 x122) x122))) (= x113 (x28 x130 x130)))))
(assert (let ((x117 (x28 x120 x130)) (x105 (x28 x130 x120)) (x98 (x28 x130 x41)) (x5 (x28 x130 x130)) (x127 (x28 x113 x41)) (x43 (x28 x113 x130)) (x96 (x28 x122 x122)) (x124 (x28 x122 x113)) (x2 (x28 x113 x120)) (x9 (x28 x120 x122)) (x159 (x28 x113 x113)) (x83 (x28 x120 x41)) (x68 (x28 x113 x122)) (x18 (x28 x41 x113)) (x144 (x28 x41 x41)) (x149 (x28 x41 x130)) (x14 (x28 x41 x122)) (x133 (x28 x130 x122)) (x40 (x28 x122 x130)) (x29 (x28 x120 x113)) (x143 (x28 x130 x113)) (x53 (x28 x41 x120)) (x8 (x28 x120 x120)) (x131 (x28 x122 x41)) (x140 (x28 x122 x120))) (let ((x81 (= x41 x8)) (x30 (= x130 x131)) (x114 (= x41 x96)) (x128 (= x130 x2)) (x24 (= x2 x113)) (x99 (= x143 x130)) (x73 (= x117 x122)) (x142 (= x113 x9)) (x97 (= x124 x122)) (x56 (= x53 x113)) (x3 (= x117 x41)) (x63 (= x120 x5)) (x23 (= x113 x149)) (x138 (= x40 x122)) (x91 (= x18 x120)) (x153 (= x41 x9)) (x69 (= x41 x131)) (x151 (= x41 x133)) (x70 (= x130 x144)) (x4 (= x122 x149)) (x125 (= x120 x144)) (x52 (= x120 x96)) (x154 (= x130 x83)) (x12 (= x41 x40)) (x94 (= x9 x120)) (x104 (= x131 x120)) (x158 (= x120 x98)) (x112 (= x120 x117)) (x119 (= x83 x122)) (x132 (= x8 x120)) (x137 (= x127 x113)) (x102 (= x40 x113)) (x136 (= x122 x8)) (x6 (= x83 x41)) (x84 (= x53 x41)) (x45 (= x43 x41)) (x77 (= x140 x130)) (x115 (= x113 x14)) (x17 (= x68 x113)) (x1 (= x120 x133)) (x16 (= x131 x113)) (x15 (= x149 x120)) (x106 (= x113 x159)) (x156 (= x105 x120)) (x21 (= x149 x130)) (x47 (= x43 x120)) (x39 (= x113 x5)) (x65 (= x113 x124)) (x66 (= x41 x140)) (x33 (= x105 x130)) (x55 (= x9 x130)) (x74 (= x120 x40)) (x22 (= x122 x68)) (x51 (= x96 x130)) (x93 (= x122 x14)) (x71 (= x144 x122)) (x60 (= x41 x144)) (x75 (= x29 x113)) (x61 (= x41 x127)) (x32 (= x131 x122)) (x79 (= x8 x113)) (x62 (= x133 x113)) (x108 (= x9 x122)) (x103 (= x143 x120)) (x147 (= x140 x113)) (x27 (= x2 x122)) (x150 (= x113 x144)) (x42 (= x53 x122)) (x101 (= x159 x122)) (x145 (= x117 x130)) (x89 (= x68 x130)) (x118 (= x41 x5)) (x116 (= x41 x159)) (x72 (= x127 x122)) (x59 (= x113 x143)) (x126 (= x18 x41)) (x13 (= x122 x105)) (x57 (= x98 x113)) (x7 (= x120 x2)) (x78 (= x113 x83)) (x26 (= x53 x120)) (x129 (= x41 x14)) (x109 (= x122 x29)) (x139 (= x122 x18)) (x155 (= x105 x41)) (x152 (= x14 x130)) (x20 (= x130 x159)) (x87 (= x113 x105)) (x82 (= x130 x18)) (x85 (= x98 x122)) (x25 (= x130 x40)) (x148 (= x41 x143)) (x95 (= x120 x140)) (x67 (= x122 x43)) (x121 (= x124 x120)) (x38 (= x96 x113)) (x135 (= x43 x130)) (x76 (= x68 x120)) (x50 (= x124 x41)) (x35 (= x120 x159)) (x90 (= x117 x113)) (x44 (= x68 x41)) (x86 (= x130 x29)) (x34 (= x113 x43)) (x46 (= x96 x122)) (x49 (= x130 x53)) (x11 (= x120 x14)) (x19 (= x127 x120)) (x36 (= x98 x41)) (x157 (= x130 x5)) (x37 (= x130 x98)) (x31 (= x5 x122)) (x88 (= x41 x29)) (x54 (= x122 x143)) (x107 (= x122 x133)) (x80 (= x41 x149)) (x141 (= x120 x29)) (x146 (= x140 x122)) (x58 (= x8 x130)) (x10 (= x130 x133)) (x100 (= x124 x130)) (x111 (= x113 x18)) (x92 (= x127 x130)) (x110 (= x83 x120)) (x48 (= x2 x41))) (and (and (and (and (and (and (and (or (or (or x50 (or x88 x116)) x126) x148) (or (or (or x44 (or x48 x116)) x61) x45)) (and (and (or (or x72 (or (or x27 x101) x22)) x67) (or (or x139 (or (or x101 x109) x97)) x54)) (and (and (or x47 (or x19 (or (or x35 x7) x76))) (or (or (or (or x35 x141) x121) x91) x103)) (and (or (or x111 (or x65 (or x75 x106))) x59) (or (or x137 (or (or x24 x106) x17)) x34))))) (and (or (or (or x89 (or x20 x128)) x92) x135) (or (or x82 (or (or x86 x20) x100)) x99))) (and (and (or (or x154 (or x55 (or x58 x86))) x145) (or (or (or (or x128 x58) x77) x49) x33)) (and (and (and (or (or x42 (or (or x136 x27) x146)) x13) (or (or (or (or x136 x109) x108) x119) x73)) (and (and (or (or (or x147 (or x24 x79)) x56) x87) (or (or (or x142 (or x75 x79)) x78) x90)) (and (or x112 (or x110 (or x94 (or x132 x141)))) (or x156 (or (or x95 (or x132 x7)) x26))))) (and (or x3 (or x6 (or (or x88 x81) x153))) (or x155 (or (or (or x81 x48) x66) x84)))))) (and (and (or (or (or x51 (or x55 x89)) x152) x10) (or (or x30 (or (or x77 x100) x51)) x25)) (and (and (and (and (or (or x11 (or (or x76 x94) x52)) x1) (or (or (or x52 (or x121 x95)) x104) x74)) (and (or x62 (or (or (or x17 x142) x38) x115)) (or (or (or (or x147 x65) x38) x16) x102))) (and (or x138 (or (or (or x146 x97) x46) x32)) (or (or x93 (or (or x22 x108) x46)) x107))) (and (or (or (or (or x44 x153) x114) x129) x151) (or (or (or x114 (or x50 x66)) x69) x12))))) (and (and (or (or (or x152 (or x49 x82)) x70) x21) (or x37 (or x70 (or (or x92 x154) x30)))) (and (and (and (or x4 (or x71 (or x93 (or x42 x139)))) (or (or (or x32 (or x72 x119)) x71) x85)) (and (and (or x15 (or x125 (or (or x91 x26) x11))) (or (or x125 (or x104 (or x110 x19))) x158)) (and (or x23 (or x150 (or x115 (or x111 x56)))) (or x57 (or (or x16 (or x137 x78)) x150))))) (and (or (or (or x129 (or x84 x126)) x60) x80) (or x36 (or x60 (or x69 (or x61 x6)))))))) (and (and (or x157 (or (or (or x145 x135) x25) x21)) (or x157 (or x37 (or (or x99 x33) x10)))) (and (and (or (or (or (or x148 x155) x151) x36) x118) (or x118 (or x80 (or (or x45 x3) x12)))) (and (and (or x31 (or (or (or x73 x67) x138) x4)) (or (or (or (or x13 x54) x107) x85) x31)) (and (and (or x39 (or (or (or x34 x90) x102) x23)) (or x39 (or (or x62 (or x87 x59)) x57))) (and (or (or (or (or x112 x47) x74) x15) x63) (or (or x158 (or x1 (or x103 x156))) x63))))))))))
(assert (let ((x43 (x28 x120 x122)) (x20 (x28 x41 x120)) (x29 (x28 x122 x120)) (x141 (x28 x120 x130)) (x18 (x28 x113 x41)) (x132 (x28 x130 x41)) (x140 (not (= x130 (x28 x130 x130)))) (x2 (x28 x120 x113)) (x101 (x28 x122 x41)) (x75 (x28 x41 x122)) (x124 (not (= x122 (x28 x122 x122)))) (x116 (x28 x41 x113)) (x24 (not (= x41 (x28 x41 x41)))) (x117 (x28 x130 x120)) (x9 (x28 x41 x130)) (x79 (x28 x113 x130)) (x127 (x28 x113 x122)) (x159 (x28 x113 x120)) (x7 (x28 x130 x122)) (x35 (x28 x122 x113)) (x68 (not (= (x28 x120 x120) x120))) (x8 (x28 x122 x130)) (x143 (x28 x120 x41)) (x83 (x28 x130 x113)) (x106 (not (= (x28 x113 x113) x113)))) (or (and (and (and (not (= x41 x132)) (and (not (= x122 x7)) (and (not (= x117 x120)) (not (= x113 x83))))) x140) (and x140 (and (and (and (not (= x79 x113)) (not (= x120 x141))) (not (= x8 x122))) (not (= x9 x41))))) (or (and (and (not (= x9 x130)) (and x24 (and (not (= x122 x75)) (and (not (= x116 x113)) (not (= x120 x20)))))) (and (and x24 (and (and (not (= x120 x143)) (not (= x18 x113))) (not (= x101 x122)))) (not (= x130 x132)))) (or (and (and (and (and x124 (and (not (= x35 x113)) (not (= x29 x120)))) (not (= x41 x101))) (not (= x130 x8))) (and (and (not (= x41 x75)) (and x124 (and (not (= x113 x127)) (not (= x120 x43))))) (not (= x7 x130)))) (or (and (and (not (= x130 x83)) (and (not (= x116 x41)) (and (and (not (= x2 x120)) x106) (not (= x35 x122))))) (and (and (not (= x41 x18)) (and (and (not (= x120 x159)) x106) (not (= x127 x122)))) (not (= x130 x79)))) (and (and (not (= x130 x141)) (and (and (not (= x43 x122)) (and x68 (not (= x2 x113)))) (not (= x143 x41)))) (and (not (= x130 x117)) (and (not (= x20 x41)) (and (not (= x122 x29)) (and x68 (not (= x159 x113)))))))))))))
(assert (and (and (and (or (= (x28 x130 (x28 x122 x130)) x122) (or (= x122 (x28 x41 (x28 x122 x41))) (or (or (= (x28 x113 (x28 x122 x113)) x122) (= (x28 x120 (x28 x122 x120)) x122)) (= x122 (x28 x122 (x28 x122 x122)))))) (and (or (or (or (= (x28 x122 (x28 x120 x122)) x120) (or (= (x28 x113 (x28 x120 x113)) x120) (= (x28 x120 (x28 x120 x120)) x120))) (= x120 (x28 x41 (x28 x120 x41)))) (= x120 (x28 x130 (x28 x120 x130)))) (or (= x113 (x28 x130 (x28 x113 x130))) (or (or (= (x28 x122 (x28 x113 x122)) x113) (or (= x113 (x28 x113 (x28 x113 x113))) (= x113 (x28 x120 (x28 x113 x120))))) (= (x28 x41 (x28 x113 x41)) x113))))) (or (or (= x41 (x28 x41 (x28 x41 x41))) (or (= x41 (x28 x122 (x28 x41 x122))) (or (= (x28 x120 (x28 x41 x120)) x41) (= x41 (x28 x113 (x28 x41 x113)))))) (= (x28 x130 (x28 x41 x130)) x41))) (or (= x130 (x28 x130 (x28 x130 x130))) (or (= (x28 x41 (x28 x130 x41)) x130) (or (or (= (x28 x120 (x28 x130 x120)) x130) (= x130 (x28 x113 (x28 x130 x113)))) (= (x28 x122 (x28 x130 x122)) x130))))))
(assert (and (or (= (x28 (x28 x130 x130) x130) x130) (or (= x41 (x28 (x28 x130 x41) x130)) (or (= x122 (x28 (x28 x130 x122) x130)) (or (= (x28 (x28 x130 x113) x130) x113) (= (x28 (x28 x130 x120) x130) x120))))) (and (and (or (or (or (or (= x120 (x28 (x28 x122 x120) x122)) (= x113 (x28 (x28 x122 x113) x122))) (= x122 (x28 (x28 x122 x122) x122))) (= (x28 (x28 x122 x41) x122) x41)) (= (x28 (x28 x122 x130) x122) x130)) (and (or (= x130 (x28 (x28 x113 x130) x113)) (or (= (x28 (x28 x113 x41) x113) x41) (or (= (x28 (x28 x113 x122) x113) x122) (or (= (x28 (x28 x113 x113) x113) x113) (= (x28 (x28 x113 x120) x113) x120))))) (or (or (= x41 (x28 (x28 x120 x41) x120)) (or (= (x28 (x28 x120 x122) x120) x122) (or (= x113 (x28 (x28 x120 x113) x120)) (= x120 (x28 (x28 x120 x120) x120))))) (= x130 (x28 (x28 x120 x130) x120))))) (or (or (= x41 (x28 (x28 x41 x41) x41)) (or (= (x28 (x28 x41 x122) x41) x122) (or (= (x28 (x28 x41 x120) x41) x120) (= x113 (x28 (x28 x41 x113) x41))))) (= x130 (x28 (x28 x41 x130) x41))))))
(assert (or (or (or (or (and (and (and (not (= (x28 x120 (x28 x120 x122)) x122)) (and (not (= (x28 x120 (x28 x120 x113)) x113)) (not (= (x28 x120 (x28 x120 x120)) x120)))) (not (= (x28 x120 (x28 x120 x41)) x41))) (not (= x130 (x28 x120 (x28 x120 x130))))) (and (not (= (x28 x113 (x28 x113 x130)) x130)) (and (and (not (= (x28 x113 (x28 x113 x122)) x122)) (and (not (= (x28 x113 (x28 x113 x113)) x113)) (not (= (x28 x113 (x28 x113 x120)) x120)))) (not (= (x28 x113 (x28 x113 x41)) x41))))) (and (and (and (and (not (= (x28 x122 (x28 x122 x120)) x120)) (not (= x113 (x28 x122 (x28 x122 x113))))) (not (= (x28 x122 (x28 x122 x122)) x122))) (not (= (x28 x122 (x28 x122 x41)) x41))) (not (= x130 (x28 x122 (x28 x122 x130)))))) (and (not (= (x28 x41 (x28 x41 x130)) x130)) (and (not (= (x28 x41 (x28 x41 x41)) x41)) (and (and (not (= x120 (x28 x41 (x28 x41 x120)))) (not (= (x28 x41 (x28 x41 x113)) x113))) (not (= (x28 x41 (x28 x41 x122)) x122)))))) (and (not (= (x28 x130 (x28 x130 x130)) x130)) (and (and (and (not (= x120 (x28 x130 (x28 x130 x120)))) (not (= x113 (x28 x130 (x28 x130 x113))))) (not (= x122 (x28 x130 (x28 x130 x122))))) (not (= (x28 x130 (x28 x130 x41)) x41))))))
(assert (let ((x128 (x28 x130 x113)) (x27 (x28 x120 x113)) (x108 (x28 x130 x122)) (x22 (x28 x122 x130)) (x14 (x28 x122 x122)) (x48 (x28 x113 x41)) (x38 (x28 x122 x120)) (x53 (x28 x113 x113)) (x136 (x28 x113 x122)) (x121 (x28 x120 x41)) (x100 (x28 x41 x41)) (x96 (x28 x120 x130)) (x88 (x28 x122 x113)) (x142 (x28 x120 x122)) (x86 (x28 x113 x130)) (x109 (x28 x113 x120)) (x81 (x28 x41 x113)) (x55 (x28 x130 x41)) (x97 (x28 x122 x41)) (x95 (x28 x41 x120)) (x147 (x28 x120 x120)) (x131 (x28 x130 x120)) (x89 (x28 x41 x130)) (x146 (x28 x41 x122)) (x91 (x28 x130 x130))) (let ((x19 (= x147 x122)) (x107 (= x53 x130)) (x8 (= x131 x113)) (x125 (= x122 x38)) (x12 (= x146 x130)) (x45 (= x95 x130)) (x67 (= x109 x130)) (x99 (= x130 x128)) (x129 (= x122 x86)) (x104 (= x136 x122)) (x149 (= x109 x122)) (x26 (= x120 x91)) (x133 (= x14 x120)) (x17 (= x147 x120)) (x126 (= x100 x122)) (x34 (= x41 x14)) (x35 (= x38 x113)) (x148 (= x142 x130)) (x90 (= x81 x41)) (x4 (= x130 x136)) (x37 (= x96 x130)) (x66 (= x120 x95)) (x15 (= x41 x22)) (x72 (= x95 x122)) (x157 (= x130 x91)) (x156 (= x41 x97)) (x118 (= x100 x130)) (x124 (= x113 x14)) (x61 (= x131 x122)) (x10 (= x131 x130)) (x63 (= x55 x41)) (x84 (= x122 x128)) (x18 (= x81 x113)) (x144 (= x27 x122)) (x51 (= x120 x128)) (x114 (= x97 x120)) (x112 (= x41 x96)) (x7 (= x55 x113)) (x158 (= x41 x128)) (x69 (= x108 x122)) (x85 (= x130 x27)) (x155 (= x130 x14)) (x32 (= x122 x146)) (x152 (= x122 x91)) (x151 (= x81 x130)) (x159 (= x27 x113)) (x50 (= x120 x48)) (x21 (= x89 x130)) (x33 (= x86 x130)) (x44 (= x121 x120)) (x139 (= x122 x14)) (x98 (= x142 x122)) (x40 (= x120 x88)) (x102 (= x48 x41)) (x78 (= x120 x22)) (x141 (= x86 x113)) (x153 (= x120 x146)) (x49 (= x122 x89)) (x87 (= x41 x136)) (x11 (= x122 x53)) (x6 (= x122 x96)) (x94 (= x120 x38)) (x39 (= x121 x41)) (x127 (= x113 x88)) (x43 (= x113 x136)) (x101 (= x95 x113)) (x57 (= x41 x142)) (x25 (= x55 x130)) (x79 (= x113 x128)) (x1 (= x41 x100)) (x150 (= x89 x120)) (x135 (= x130 x108)) (x36 (= x48 x130)) (x116 (= x121 x113)) (x111 (= x120 x86)) (x119 (= x121 x122)) (x76 (= x136 x120)) (x74 (= x41 x108)) (x71 (= x97 x122)) (x137 (= x108 x120)) (x2 (= x109 x113)) (x52 (= x142 x120)) (x117 (= x113 x22)) (x9 (= x96 x113)) (x115 (= x120 x96)) (x68 (= x147 x113)) (x60 (= x22 x122)) (x140 (= x113 x91)) (x106 (= x53 x113)) (x138 (= x88 x130)) (x30 (= x41 x109)) (x70 (= x147 x41)) (x5 (= x41 x86)) (x54 (= x89 x41)) (x154 (= x41 x27)) (x29 (= x113 x142)) (x58 (= x120 x27)) (x16 (= x55 x120)) (x3 (= x130 x121)) (x110 (= x88 x122)) (x105 (= x53 x120)) (x73 (= x130 x147)) (x132 (= x113 x89)) (x145 (= x130 x22)) (x75 (= x113 x97)) (x77 (= x100 x120)) (x83 (= x113 x108)) (x103 (= x41 x146)) (x65 (= x120 x109)) (x42 (= x81 x122)) (x80 (= x130 x97)) (x13 (= x41 x91)) (x92 (= x53 x41)) (x62 (= x41 x38)) (x31 (= x38 x130)) (x143 (= x48 x113)) (x24 (= x113 x100)) (x93 (= x122 x48)) (x20 (= x146 x113)) (x56 (= x120 x131)) (x59 (= x88 x41)) (x46 (= x120 x81)) (x82 (= x122 x55)) (x23 (= x95 x41)) (x47 (= x131 x41))) (and (and (or (or (and x13 x13) (or (or (or (and x47 x112) (and x158 x5)) (and x74 x15)) (and x63 x54))) (or (or (or (or (or (or (and x57 x62) (or (and x30 x154) (and x70 x70))) (and x23 x39)) (and x112 x47)) (or (or (or (or (and x92 x92) (and x154 x30)) (and x87 x59)) (and x90 x102)) (and x158 x5))) (or (or (or (and x34 x34) (or (and x87 x59) (and x57 x62))) (and x156 x103)) (and x74 x15))) (or (and x63 x54) (or (and x1 x1) (or (or (and x39 x23) (and x90 x102)) (and x103 x156)))))) (and (and (or (or (or (or (or (or (and x46 x50) (and x66 x44)) (and x153 x114)) (and x77 x77)) (and x16 x150)) (or (or (or (or (or (and x52 x94) (or (and x17 x17) (and x65 x58))) (and x66 x44)) (and x115 x56)) (or (or (or (or (and x58 x65) (and x105 x105)) (and x40 x76)) (and x50 x46)) (and x51 x111))) (or (or (and x153 x114) (or (or (and x40 x76) (and x52 x94)) (and x133 x133))) (and x78 x137)))) (or (and x26 x26) (or (and x16 x150) (or (or (and x56 x115) (and x51 x111)) (and x78 x137))))) (or (or (and x140 x140) (or (and x7 x132) (or (or (and x141 x79) (and x9 x8)) (and x117 x83)))) (or (or (and x7 x132) (or (and x24 x24) (or (and x20 x75) (or (and x101 x116) (and x143 x18))))) (or (or (or (and x141 x79) (or (or (and x43 x127) (or (and x159 x2) (and x106 x106))) (and x18 x143))) (or (and x9 x8) (or (and x116 x101) (or (or (and x159 x2) (and x68 x68)) (and x35 x29))))) (or (or (or (and x124 x124) (or (and x43 x127) (and x35 x29))) (and x75 x20)) (and x117 x83)))))) (or (or (or (and x82 x49) (or (and x126 x126) (or (or (and x72 x119) (and x93 x42)) (and x32 x71)))) (or (or (or (or (or (or (and x149 x144) (and x11 x11)) (and x104 x110)) (and x93 x42)) (and x84 x129)) (or (and x6 x61) (or (and x119 x72) (or (and x98 x125) (or (and x19 x19) (and x149 x144)))))) (or (and x60 x69) (or (or (or (and x98 x125) (and x110 x104)) (and x139 x139)) (and x71 x32))))) (or (and x152 x152) (or (or (or (and x129 x84) (and x61 x6)) (and x60 x69)) (and x82 x49)))))) (or (or (or (or (or (or (or (or (and x85 x67) (and x73 x73)) (and x31 x148)) (and x3 x45)) (and x10 x37)) (or (and x33 x99) (or (and x151 x36) (or (or (and x85 x67) (and x107 x107)) (and x4 x138))))) (or (and x135 x145) (or (and x80 x12) (or (or (and x4 x138) (and x31 x148)) (and x155 x155))))) (or (or (or (and x80 x12) (or (and x36 x151) (and x45 x3))) (and x118 x118)) (and x25 x21))) (or (and x157 x157) (or (and x25 x21) (or (or (and x99 x33) (and x37 x10)) (and x145 x135)))))))))
(assert (let ((x127 (x28 x130 x113)) (x83 (x28 x113 x130)) (x29 (x28 x122 x120)) (x140 (x28 x130 x130)) (x75 (x28 x130 x122)) (x9 (x28 x130 x41)) (x8 (x28 x41 x41)) (x7 (x28 x122 x130)) (x116 (x28 x122 x122)) (x79 (x28 x120 x41)) (x35 (x28 x120 x120)) (x18 (x28 x130 x120)) (x143 (x28 x113 x122)) (x2 (x28 x122 x113)) (x43 (x28 x113 x120)) (x132 (x28 x41 x130)) (x106 (x28 x113 x113)) (x117 (x28 x120 x130)) (x159 (x28 x120 x113)) (x124 (x28 x41 x120)) (x68 (x28 x41 x113)) (x101 (x28 x120 x122)) (x141 (x28 x122 x41)) (x24 (x28 x113 x41)) (x20 (x28 x41 x122))) (and (and (and (and (and (not (= x7 x132)) (and (and (not (= x132 x117)) (and (not (= x7 x117)) (and (and (not (= x132 x83)) (and (not (= x7 x83)) (not (= x117 x83)))) (not (= x83 x140))))) (not (= x140 x117)))) (not (= x140 x7))) (not (= x132 x140))) (and (and (and (and (not (= x68 x127)) (and (and (and (not (= x127 x159)) (and (and (and (not (= x127 x106)) (and (not (= x68 x106)) (and (not (= x2 x106)) (not (= x159 x106))))) (not (= x159 x2))) (not (= x68 x159)))) (not (= x2 x68))) (not (= x2 x127)))) (and (and (not (= x29 x18)) (and (and (and (not (= x124 x35)) (and (and (and (and (not (= x35 x43)) (not (= x29 x43))) (not (= x124 x43))) (not (= x18 x43))) (not (= x35 x29)))) (not (= x18 x35))) (not (= x124 x29)))) (not (= x124 x18)))) (and (and (not (= x75 x116)) (and (not (= x20 x116)) (and (and (and (and (and (not (= x143 x20)) (and (not (= x101 x143)) (not (= x143 x116)))) (not (= x143 x75))) (not (= x101 x116))) (not (= x101 x20))) (not (= x75 x101))))) (not (= x75 x20)))) (and (not (= x8 x9)) (and (and (and (not (= x9 x79)) (and (not (= x79 x8)) (and (not (= x141 x79)) (and (not (= x24 x9)) (and (and (not (= x24 x79)) (not (= x141 x24))) (not (= x24 x8))))))) (not (= x141 x8))) (not (= x141 x9)))))) (and (and (and (and (not (= x75 x9)) (and (not (= x140 x18)) (and (and (and (not (= x127 x140)) (and (not (= x127 x9)) (and (not (= x75 x127)) (not (= x127 x18))))) (not (= x18 x75))) (not (= x9 x18))))) (not (= x140 x75))) (not (= x9 x140))) (and (and (and (not (= x20 x132)) (and (and (and (not (= x8 x124)) (and (not (= x20 x124)) (and (not (= x132 x68)) (and (and (not (= x124 x68)) (not (= x68 x20))) (not (= x68 x8)))))) (not (= x132 x124))) (not (= x20 x8)))) (not (= x8 x132))) (and (and (not (= x141 x7)) (and (not (= x7 x116)) (and (and (and (not (= x29 x141)) (and (and (and (not (= x2 x141)) (and (not (= x2 x29)) (not (= x2 x116)))) (not (= x7 x2))) (not (= x116 x29)))) (not (= x7 x29))) (not (= x141 x116))))) (and (and (not (= x24 x83)) (and (and (not (= x143 x24)) (and (not (= x43 x83)) (and (not (= x43 x24)) (and (not (= x43 x143)) (and (and (not (= x24 x106)) (and (not (= x106 x43)) (not (= x106 x143)))) (not (= x83 x106))))))) (not (= x143 x83)))) (and (and (and (and (not (= x35 x117)) (and (and (and (and (not (= x159 x79)) (and (not (= x159 x101)) (not (= x35 x159)))) (not (= x159 x117))) (not (= x101 x35))) (not (= x35 x79)))) (not (= x101 x79))) (not (= x101 x117))) (not (= x117 x79))))))))))
(assert (let ((x101 (x28 x122 x120)) (x141 (x28 x41 x122)) (x29 (x28 x120 x122)) (x79 (x28 x41 x120)) (x9 (x28 x41 x130)) (x127 (x28 x113 x130)) (x18 (x28 x120 x130)) (x116 (x28 x122 x122)) (x83 (x28 x130 x113)) (x143 (x28 x122 x113)) (x68 (x28 x113 x41)) (x20 (x28 x122 x41)) (x8 (x28 x41 x41)) (x117 (x28 x130 x120)) (x24 (x28 x41 x113)) (x132 (x28 x130 x41)) (x75 (x28 x122 x130)) (x106 (x28 x113 x113)) (x43 (x28 x120 x113)) (x124 (x28 x120 x41)) (x7 (x28 x130 x122)) (x2 (x28 x113 x122)) (x35 (x28 x120 x120)) (x159 (x28 x113 x120)) (x140 (x28 x130 x130))) (and (and (and (and (and (and (and (and (or (or (or (= x106 x122) (or (= x106 x120) (= x106 x113))) (= x41 x106)) (= x106 x130)) (or (= x159 x130) (or (= x41 x159) (or (= x159 x122) (or (= x159 x113) (= x120 x159)))))) (or (or (or (= x2 x122) (or (= x2 x120) (= x113 x2))) (= x41 x2)) (= x130 x2))) (or (or (or (= x122 x68) (or (= x68 x113) (= x68 x120))) (= x68 x41)) (= x68 x130))) (or (= x127 x130) (or (or (= x122 x127) (or (= x120 x127) (= x113 x127))) (= x127 x41)))) (and (or (= x18 x130) (or (= x41 x18) (or (or (= x18 x120) (= x18 x113)) (= x122 x18)))) (and (and (or (or (= x41 x29) (or (= x122 x29) (or (= x29 x120) (= x113 x29)))) (= x130 x29)) (and (or (= x130 x35) (or (= x41 x35) (or (= x122 x35) (or (= x35 x113) (= x35 x120))))) (or (= x43 x130) (or (= x43 x41) (or (= x43 x122) (or (= x43 x113) (= x120 x43))))))) (or (or (= x41 x124) (or (= x122 x124) (or (= x120 x124) (= x113 x124)))) (= x124 x130))))) (and (or (or (or (= x122 x75) (or (= x113 x75) (= x75 x120))) (= x75 x41)) (= x130 x75)) (and (or (= x20 x130) (or (= x41 x20) (or (= x20 x122) (or (= x120 x20) (= x113 x20))))) (and (or (or (= x41 x116) (or (or (= x116 x120) (= x113 x116)) (= x116 x122))) (= x116 x130)) (and (or (or (or (or (= x101 x120) (= x101 x113)) (= x122 x101)) (= x101 x41)) (= x130 x101)) (or (= x130 x143) (or (or (= x143 x122) (or (= x120 x143) (= x143 x113))) (= x41 x143)))))))) (and (and (and (and (or (or (= x41 x79) (or (= x122 x79) (or (= x79 x113) (= x120 x79)))) (= x79 x130)) (or (or (= x41 x24) (or (= x24 x122) (or (= x24 x113) (= x24 x120)))) (= x130 x24))) (or (= x141 x130) (or (= x141 x41) (or (or (= x141 x120) (= x113 x141)) (= x122 x141))))) (or (= x8 x130) (or (or (or (= x8 x120) (= x8 x113)) (= x122 x8)) (= x8 x41)))) (or (= x9 x130) (or (or (= x122 x9) (or (= x9 x113) (= x120 x9))) (= x41 x9))))) (and (and (and (or (or (or (= x122 x7) (or (= x120 x7) (= x113 x7))) (= x41 x7)) (= x130 x7)) (and (or (or (= x41 x83) (or (= x83 x122) (or (= x83 x113) (= x83 x120)))) (= x130 x83)) (or (or (= x41 x117) (or (or (= x117 x113) (= x120 x117)) (= x122 x117))) (= x130 x117)))) (or (= x132 x130) (or (= x41 x132) (or (= x132 x122) (or (= x120 x132) (= x113 x132)))))) (or (= x140 x130) (or (or (or (= x120 x140) (= x140 x113)) (= x140 x122)) (= x41 x140)))))))
(assert (and (not (= x41 x130)) (and (not (= x130 x122)) (and (not (= x41 x122)) (and (not (= x120 x130)) (and (and (not (= x122 x120)) (and (and (and (not (= x120 x113)) (not (= x113 x122))) (not (= x41 x113))) (not (= x113 x130)))) (not (= x120 x41))))))))
(check-sat)
(exit)
